# Solution for model JobShopModel
# Objective value = 28
y[0,0,1] 1
y[0,1,1] 1
y[1,0,0] 1
y[1,1,1] 1
x[0,0,0,0] 0
x[0,0,0,1] 1
x[0,0,1,0] 0
x[0,0,1,1] 1
x[0,1,0,0] 0
x[0,1,0,1] 0
x[0,1,1,0] 0
x[0,1,1,1] 1
x[1,0,0,0] 0
x[1,0,0,1] 0
x[1,0,1,0] 0
x[1,0,1,1] 0
x[1,1,0,0] 0
x[1,1,0,1] 0
x[1,1,1,0] 0
x[1,1,1,1] 0
s[0,0,1] 2.9999999999997282e+01
s[0,1,1] 2.0000000000040089e+01
s[1,0,0] 5.0000000000037161e+00
s[1,1,1] 3.9794853929548573e-12
Z_FO 28
C25 1
C26 1
